
List of user-set options:

                                    Name   Value                used
                           compl_inf_tol = 1                     yes
                         constr_viol_tol = 1                     yes
                            dual_inf_tol = 1000                  yes
                           linear_solver = ma97                  yes
                              ma86_small = 1e-30                  no
                                  ma86_u = 0.0001                 no
                              ma97_order = best                  yes
                              ma97_small = 1e-30                 yes
                            ma97_switch1 = at_start              yes
                            ma97_switch2 = od_hd_reuse           yes
                                  ma97_u = 1e-06                 yes
                               ma97_umax = 0.5                   yes
                                max_iter = 1000                  yes
                    max_refinement_steps = 20                    yes
                    min_refinement_steps = 5                     yes
                                 mu_init = 1e-06                 yes
           mu_superlinear_decrease_power = 1.25                  yes
                   nlp_scaling_min_value = 1e-08                 yes
                        option_file_name = Preset_Case:_796_NCP.opt  yes
                             output_file = ./tmp/Preset_Case:_796_NCP.output  yes
                      print_user_options = yes                   yes
        required_infeasibility_reduction = 1                      no
                                     tol = 1e-08                 yes
                   warm_start_bound_frac = 1e-20                 yes
                   warm_start_bound_push = 1e-20                 yes
                   warm_start_init_point = yes                   yes
              warm_start_mult_bound_push = 1e-20                 yes
                warm_start_mult_init_max = 1e+40                 yes
             warm_start_slack_bound_frac = 1e-20                 yes
             warm_start_slack_bound_push = 1e-20                 yes

******************************************************************************
This program contains Ipopt, a library for large-scale nonlinear optimization.
 Ipopt is released as open source code under the Eclipse Public License (EPL).
         For more information visit http://projects.coin-or.org/Ipopt
******************************************************************************

This is Ipopt version 3.12.10, running with linear solver ma97.

Number of nonzeros in equality constraint Jacobian...:   117167
Number of nonzeros in inequality constraint Jacobian.:      213
Number of nonzeros in Lagrangian Hessian.............:    47513

Total number of variables............................:    29977
                     variables with only lower bounds:    11312
                variables with lower and upper bounds:    15135
                     variables with only upper bounds:        0
Total number of equality constraints.................:    29864
Total number of inequality constraints...............:       25
        inequality constraints with only lower bounds:        4
   inequality constraints with lower and upper bounds:        0
        inequality constraints with only upper bounds:       21

iter    objective    inf_pr   inf_du lg(mu)  ||d||  lg(rg) alpha_du alpha_pr  ls
   0 -1.4999813e-01 5.86e-01 2.00e+00  -6.0 0.00e+00    -  0.00e+00 0.00e+00   0
In iteration 0, 7 Slacks too small, adjusting variable bounds
   1 -1.4999813e-01 5.86e-01 1.00e+02  -6.0 1.13e+10    -  1.00e-14 1.00e-16h  1
   2 -1.4999813e-01 5.86e-01 1.00e+02  -6.0 1.02e+03    -  3.35e-07 1.89e-08f  1
   3 -1.4999796e-01 5.86e-01 1.00e+02  -6.0 2.42e+02    -  2.64e-04 2.69e-06f  1
   4 -1.4977922e-01 5.84e-01 1.01e+02  -6.0 7.74e+02    -  2.11e-04 2.50e-03h  1
   5 -1.4977892e-01 5.84e-01 1.04e+02  -6.0 1.78e+02    -  1.90e-02 3.63e-06h  2
   6 -1.4977608e-01 5.84e-01 1.05e+02  -6.0 2.17e+02    -  6.79e-03 3.84e-05h  1
   7 -1.4971532e-01 5.82e-01 4.50e+02  -6.0 3.67e+02    -  8.11e-04 3.49e-03h  1
   8 -1.4771187e-01 5.65e-01 3.93e+02  -6.0 1.90e+02    -  5.72e-03 2.94e-02h  2
   9 -1.4551548e-01 5.48e-01 3.81e+02  -6.0 1.99e+02    -  6.97e-03 3.10e-02h  2
iter    objective    inf_pr   inf_du lg(mu)  ||d||  lg(rg) alpha_du alpha_pr  ls
  10 -1.4409245e-01 5.35e-01 3.72e+02  -6.0 1.89e+02    -  1.54e-02 2.25e-02h  3
  11 -1.4288296e-01 5.25e-01 3.64e+02  -6.0 1.73e+02    -  2.47e-02 1.92e-02h  3
  12 -1.4085356e-01 5.08e-01 3.51e+02  -6.0 1.77e+02    -  2.38e-02 3.32e-02h  2
  13 -1.3953221e-01 4.96e-01 3.42e+02  -6.0 1.77e+02    -  6.06e-02 2.25e-02h  2
  14 -1.3784101e-01 4.81e-01 3.30e+02  -6.0 1.77e+02    -  7.20e-02 2.97e-02h  1
  15 -1.3621685e-01 4.67e-01 1.31e+06  -6.0 1.66e+02    -  1.61e-01 2.93e-02h  3
  16 -1.3475673e-01 4.54e-01 2.29e+06  -6.0 1.58e+02    -  1.45e-01 2.93e-02h  3
  17 -1.3339434e-01 4.41e-01 3.65e+06  -6.0 1.57e+02    -  1.73e-01 2.87e-02h  3
  18 -1.3216498e-01 4.28e-01 5.61e+06  -6.0 1.55e+02    -  1.95e-01 2.86e-02h  3
  19 -1.3108552e-01 4.16e-01 8.56e+06  -6.0 1.61e+02    -  2.16e-01 2.90e-02h  2
iter    objective    inf_pr   inf_du lg(mu)  ||d||  lg(rg) alpha_du alpha_pr  ls
  20 -1.3077293e-01 4.11e-01 1.13e+07  -6.0 2.50e+02    -  1.44e-01 1.06e-02h  1
  21 -1.3030919e-01 4.05e-01 1.44e+07  -6.0 2.39e+02    -  1.39e-01 1.50e-02h  4
  22 -1.3013075e-01 4.02e-01 1.78e+07  -6.0 3.69e+02    -  1.26e-01 7.50e-03h  4
  23 -1.2997338e-01 3.97e-01 2.19e+07  -6.0 5.29e+02    -  1.38e-01 1.18e-02h  3
  24 -1.2975840e-01 3.93e-01 2.12e+07  -6.0 5.12e+02    -  3.73e-07 1.16e-02h  3
  25 -1.2924380e-01 3.86e-01 2.58e+07  -6.0 5.18e+02    -  1.57e-01 1.80e-02h  2
  26 -1.2907754e-01 3.83e-01 2.62e+07  -6.0 6.41e+02    -  2.23e-02 6.75e-03h  3
  27 -1.2893274e-01 3.81e-01 3.21e+07  -6.0 6.71e+02    -  1.51e-01 6.15e-03h  3
  28 -1.2879678e-01 3.78e-01 3.31e+07  -6.0 9.07e+02    -  3.26e-02 6.63e-03h  2
  29 -1.2867156e-01 3.76e-01 4.06e+07  -6.0 9.68e+02    -  1.73e-01 6.51e-03h  1
iter    objective    inf_pr   inf_du lg(mu)  ||d||  lg(rg) alpha_du alpha_pr  ls
  30 -1.2866422e-01 3.75e-01 4.36e+07  -6.0 1.33e+03    -  6.05e-02 2.58e-03h  6
  31 -1.2866119e-01 3.74e-01 5.51e+07  -6.0 1.47e+03    -  2.12e-01 2.55e-03h  6
  32 -1.2866523e-01 3.73e-01 5.85e+07  -6.0 1.95e+03    -  6.24e-02 2.51e-03h  6
  33 -1.2866943e-01 3.72e-01 7.23e+07  -6.0 2.09e+03    -  2.28e-01 2.55e-03h  6
  34 -1.2866001e-01 3.71e-01 7.59e+07  -6.0 2.52e+03    -  5.71e-02 2.25e-03h  6
  35 -1.2864687e-01 3.70e-01 9.00e+07  -6.0 2.59e+03    -  2.04e-01 2.05e-03h  6
  36 -1.2862147e-01 3.70e-01 9.36e+07  -6.0 2.73e+03    -  4.88e-02 1.52e-03h  6
  37 -1.2859763e-01 3.69e-01 9.96e+07  -6.0 2.75e+03    -  7.72e-02 1.41e-03h  6
  38 -1.2857836e-01 3.69e-01 1.07e+08  -6.0 2.75e+03    -  8.47e-02 1.30e-03h  6
  39 -1.2856835e-01 3.68e-01 1.16e+08  -6.0 2.74e+03    -  9.89e-02 1.24e-03h  6
iter    objective    inf_pr   inf_du lg(mu)  ||d||  lg(rg) alpha_du alpha_pr  ls
  40 -1.2888318e-01 9.65e-01 1.17e+08  -6.0 2.73e+03    -  9.82e-02 3.79e-02w  1
  41 -1.2893832e-01 9.64e-01 1.56e+08  -6.0 3.41e+03    -  2.41e-01 6.70e-04w  1
  42 -1.3897628e-01 1.78e+00 1.63e+08  -6.0 3.97e+03    -  1.71e-01 7.78e-02w  1
  43 -1.2857819e-01 3.68e-01 1.25e+08  -6.0 6.47e+03    -  9.82e-02 1.19e-03h  5
  44 -1.2866133e-01 3.67e-01 1.41e+08  -6.0 2.73e+03    -  1.56e-01 2.21e-03h  5
  45 -1.2896149e-01 3.66e-01 1.54e+08  -6.0 2.79e+03    -  1.08e-01 3.62e-03h  4
  46 -1.2914247e-01 3.65e-01 1.66e+08  -6.0 3.27e+03    -  9.59e-02 1.69e-03h  5
  47 -1.2936263e-01 3.64e-01 1.90e+08  -6.0 3.92e+03    -  1.56e-01 1.50e-03h  6
  48 -1.3516672e-01 8.03e-01 1.97e+08  -6.0 5.13e+03    -  1.07e-01 3.21e-02h  1
  49 -1.3516849e-01 8.02e-01 2.23e+08  -6.0 6.39e+03    -  9.72e-02 2.06e-05h  1
iter    objective    inf_pr   inf_du lg(mu)  ||d||  lg(rg) alpha_du alpha_pr  ls
  50 -1.4786511e-01 1.68e+01 1.93e+08  -6.0 7.63e+03    -  1.19e-01 1.26e-01f  1
  51 -1.4179105e-01 1.40e+01 1.06e+08  -6.0 2.31e+03  -4.0 2.82e-06 1.70e-01H  1
  52r-1.4179105e-01 1.40e+01 1.00e+03   1.0 0.00e+00  -4.5 0.00e+00 2.51e-07R  2
  53r-1.4173136e-01 1.40e+01 1.00e+03   1.0 6.01e+05    -  9.09e-08 1.73e-08f  1
  54 -1.4170231e-01 1.40e+01 7.28e+02  -6.0 1.08e+02    -  1.64e-06 1.19e-03h  1
  55 -1.4156761e-01 1.39e+01 9.46e+05  -6.0 1.96e+02    -  1.79e-02 5.68e-03h  1
  56r-1.4156761e-01 1.39e+01 1.00e+03   1.0 0.00e+00    -  0.00e+00 4.63e-08R  2
  57r-1.4156663e-01 1.39e+01 8.33e+04   1.0 4.76e+04    -  3.16e-08 8.37e-09f  1
  58 -1.4150052e-01 1.38e+01 7.69e+05  -6.0 1.06e+02    -  1.14e-02 2.82e-03h  1
  59 -1.4146150e-01 1.38e+01 3.50e+05  -6.0 1.05e+02    -  2.82e-03 1.67e-03h  1
iter    objective    inf_pr   inf_du lg(mu)  ||d||  lg(rg) alpha_du alpha_pr  ls
  60 -1.4141279e-01 1.38e+01 3.50e+05  -6.0 2.93e+02    -  5.76e-03 2.42e-03h  1
  61r-1.4141279e-01 1.38e+01 1.00e+03   1.0 0.00e+00    -  0.00e+00 1.69e-08R  2
  62r-1.4141284e-01 1.38e+01 1.00e+03   1.0 3.44e+05    -  9.84e-10 2.22e-11f  2
  63 -1.4141170e-01 1.38e+01 2.04e+03  -6.0 1.05e+02    -  2.03e-02 4.93e-05h  1
  64 -1.4141169e-01 1.38e+01 6.54e+06  -6.0 5.63e+02    -  1.09e-02 1.71e-06h  2
  65 -1.4145537e-01 1.37e+01 1.81e+07  -6.0 7.81e+02    -  2.15e-02 7.73e-03h  1
  66 -1.4163298e-01 1.36e+01 1.47e+07  -6.0 9.16e+02    -  4.56e-03 7.79e-03h  1
  67 -1.4168772e-01 1.35e+01 6.25e+07  -6.0 1.13e+03    -  3.87e-02 1.22e-03h  1
  68 -1.4249875e-01 1.33e+01 4.09e+07  -6.0 1.20e+03    -  1.27e-03 1.65e-02h  1
  69 -1.4256623e-01 1.33e+01 8.48e+07  -6.0 1.59e+03    -  2.55e-02 9.47e-04h  1
iter    objective    inf_pr   inf_du lg(mu)  ||d||  lg(rg) alpha_du alpha_pr  ls
  70 -1.4392332e-01 1.30e+01 4.00e+07  -6.0 1.55e+03    -  9.51e-08 2.47e-02h  1
  71r-1.4392332e-01 1.30e+01 1.00e+03   0.9 0.00e+00    -  0.00e+00 2.56e-07R  2
  72r-1.4392141e-01 1.30e+01 5.82e+03   0.9 2.91e+04    -  2.68e-07 1.17e-08f  1
  73 -1.4392090e-01 1.30e+01 1.21e+05  -6.0 8.14e+01    -  1.82e-02 2.77e-05h  1
  74 -1.4392036e-01 1.30e+01 1.73e+05  -6.0 3.26e+02    -  4.25e-05 6.03e-05h  1
  75 -1.4392049e-01 1.30e+01 7.29e+07  -6.0 1.26e+03    -  4.43e-02 2.82e-06h  2
  76 -1.4396943e-01 1.30e+01 7.11e+07  -6.0 1.62e+03    -  1.06e-04 1.01e-03h  1
  77 -1.4540391e-01 1.28e+01 5.88e+07  -6.0 2.03e+03    -  1.13e-02 1.58e-02h  1
  78 -1.4498247e-01 1.25e+01 2.45e+07  -6.0 1.48e+03    -  1.38e-07 1.67e-02h  1
  79 -1.4484105e-01 1.25e+01 2.67e+07  -6.0 1.41e+03    -  8.14e-03 3.53e-03h  1
iter    objective    inf_pr   inf_du lg(mu)  ||d||  lg(rg) alpha_du alpha_pr  ls
  80 -1.4465500e-01 1.24e+01 2.69e+07  -6.0 1.39e+03    -  8.57e-03 5.43e-03h  1
  81 -1.4453041e-01 1.24e+01 2.55e+07  -6.0 1.20e+03    -  1.08e-02 4.81e-03h  1
  82 -1.4318138e-01 1.22e+01 2.47e+07  -6.0 9.42e+02    -  1.71e-02 1.43e-02h  1
  83 -1.4158791e-01 1.20e+01 2.46e+07  -6.0 6.57e+02    -  1.78e-02 1.97e-02h  1
  84 -1.3837389e-01 1.14e+01 2.83e+07  -6.0 4.53e+02    -  1.84e-02 4.57e-02h  1
  85 -1.3431631e-01 1.05e+01 3.40e+07  -6.0 2.70e+02    -  2.33e-02 7.72e-02h  1
  86 -1.3212509e-01 9.95e+00 3.57e+07  -6.0 1.43e+02    -  1.38e-02 5.54e-02h  1
  87 -1.3106957e-01 9.68e+00 3.30e+07  -6.0 1.06e+02    -  8.23e-02 2.66e-02h  2
  88 -1.3096736e-01 9.66e+00 2.78e+07  -6.0 1.06e+02    -  9.95e-02 2.95e-03h  6
  89 -1.3091816e-01 9.64e+00 2.19e+07  -6.0 1.13e+02    -  1.10e-01 1.41e-03h  8
iter    objective    inf_pr   inf_du lg(mu)  ||d||  lg(rg) alpha_du alpha_pr  ls
  90 -1.3088028e-01 9.63e+00 1.52e+07  -6.0 1.20e+02    -  1.28e-01 1.07e-03h  9
  91 -1.3087960e-01 9.63e+00 8.55e+06  -6.0 1.27e+02    -  1.35e-01 1.88e-05h 15
  92 -1.1894089e-01 6.56e+00 1.41e+07  -6.0 1.35e+02    -  1.40e-01 3.19e-01h  1
  93 -1.1809221e-01 5.26e+00 1.81e+07  -6.0 2.96e+02    -  2.08e-02 1.98e-01h  1
  94 -1.1798920e-01 5.18e+00 1.79e+07  -6.0 2.30e+02  -4.1 8.16e-06 1.58e-02h  1
  95 -1.1794570e-01 5.11e+00 1.77e+07  -6.0 1.83e+02  -3.6 4.80e-03 1.25e-02h  1
  96 -1.1778404e-01 5.05e+00 1.72e+07  -6.0 9.11e+02  -4.1 8.18e-05 1.27e-02h  1
  97 -1.1586130e-01 4.00e+00 1.10e+07  -6.0 8.33e+01    -  7.74e-03 2.07e-01h  1
  98 -1.1585390e-01 3.99e+00 1.91e+07  -6.0 1.92e+02    -  1.87e-01 2.61e-03h  1
  99 -1.1525722e-01 3.20e+00 1.60e+07  -6.0 8.47e+01    -  2.22e-01 1.99e-01h  1
iter    objective    inf_pr   inf_du lg(mu)  ||d||  lg(rg) alpha_du alpha_pr  ls
 100r-1.1525722e-01 3.20e+00 1.00e+03   0.3 0.00e+00    -  0.00e+00 3.06e-07R  5
 101r-1.1293079e-01 3.20e+00 1.00e+03   0.3 1.19e+06    -  8.95e-07 1.48e-06f  1
 102 -1.1286167e-01 3.16e+00 2.01e+04  -6.0 3.08e+01    -  2.63e-04 1.24e-02h  1
 103 -1.1246493e-01 2.91e+00 1.63e+04  -6.0 2.62e+01    -  1.25e-02 7.65e-02h  1
 104 -1.1233239e-01 2.84e+00 1.59e+04  -6.0 2.35e+01    -  1.03e-01 2.71e-02h  1
 105 -1.1110893e-01 2.12e+00 1.19e+04  -6.0 2.26e+01    -  1.88e-01 2.54e-01h  1
 106 -1.0863189e-01 7.72e-01 9.41e+03  -6.0 1.53e+01    -  2.57e-01 6.35e-01h  1
 107 -1.0798928e-01 4.99e-01 3.56e+03  -6.0 4.75e+00    -  5.69e-01 3.54e-01h  1
 108 -1.0706107e-01 8.60e-03 4.49e+02  -6.0 3.13e+00    -  6.01e-01 1.00e+00h  1
 109 -1.0786944e-01 5.82e-03 3.62e+03  -6.0 2.42e+00    -  5.81e-01 1.00e+00h  1
iter    objective    inf_pr   inf_du lg(mu)  ||d||  lg(rg) alpha_du alpha_pr  ls
 110 -1.0901509e-01 5.89e-03 3.70e+03  -6.0 2.65e+00    -  6.61e-01 1.00e+00h  1
 111 -1.1200231e-01 2.30e-02 1.31e+03  -6.0 8.95e+00    -  5.54e-01 1.00e+00h  1
 112 -1.1989765e-01 1.93e-01 5.27e+02  -6.0 2.33e+01    -  3.35e-02 1.00e+00h  1
 113 -1.3003345e-01 2.36e-01 4.53e+02  -6.0 2.73e+01    -  5.24e-01 9.40e-01h  1
 114 -1.3366109e-01 2.26e-01 5.23e+02  -6.0 9.33e+01    -  2.69e-01 1.09e-01h  1
 115 -1.4463839e-01 2.05e-01 1.31e+03  -6.0 9.47e+01    -  1.53e-01 3.73e-01f  1
 116 -1.4880751e-01 1.99e-01 4.89e+02  -6.0 1.86e+02    -  1.56e-01 6.86e-02h  1
 117 -1.5670908e-01 1.73e-01 9.38e+02  -6.0 1.58e+02    -  2.64e-01 1.73e-01h  1
 118 -1.6092596e-01 1.47e-01 1.30e+03  -6.0 1.20e+02    -  8.13e-02 1.64e-01h  1
 119 -1.6686085e-01 1.87e-01 4.55e+03  -6.0 1.66e+02    -  9.88e-02 3.33e-01f  1
iter    objective    inf_pr   inf_du lg(mu)  ||d||  lg(rg) alpha_du alpha_pr  ls
 120 -1.7025224e-01 1.87e-01 5.27e+03  -6.0 1.14e+02    -  1.49e-01 2.15e-01h  1
 121 -1.7562018e-01 4.82e-01 3.45e+03  -6.0 7.33e+01    -  3.69e-01 3.52e-01h  1
 122 -1.8057966e-01 1.12e+00 2.24e+03  -6.0 9.79e+01    -  3.70e-01 3.27e-01h  1
 123 -1.8221677e-01 1.14e+00 1.94e+03  -6.0 1.21e+02    -  6.76e-01 1.37e-01h  1
 124 -1.8495310e-01 1.58e+00 1.62e+03  -6.0 2.69e+02    -  6.63e-01 1.64e-01h  1
 125 -1.8510767e-01 8.59e-01 8.72e+02  -6.0 2.95e+00  -4.6 2.05e-01 4.61e-01h  1
 126 -1.8558443e-01 5.93e-01 5.65e+02  -6.0 4.54e+00  -5.1 1.80e-01 3.52e-01h  1
 127 -1.8611029e-01 5.79e-01 4.52e+02  -6.0 1.04e+01  -5.5 6.69e-01 2.00e-01h  1
 128 -1.8809939e-01 1.77e+00 3.07e+02  -6.0 2.51e+01  -6.0 1.82e-01 3.21e-01h  1
 129 -1.8829380e-01 1.74e+00 2.99e+02  -6.0 4.08e+01  -6.5 4.20e-01 2.54e-02h  1
iter    objective    inf_pr   inf_du lg(mu)  ||d||  lg(rg) alpha_du alpha_pr  ls
 130 -1.8936390e-01 1.73e+00 2.21e+02  -6.0 1.84e+01  -6.1 9.93e-01 2.61e-01f  1
 131 -1.8949521e-01 1.66e+00 2.12e+02  -6.0 6.14e+01  -6.5 7.13e-01 4.16e-02h  1
 132 -1.9013656e-01 1.18e+00 1.39e+02  -6.0 4.12e+01  -7.0 1.00e+00 3.47e-01h  1
 133 -1.9418976e-01 8.26e-01 4.28e+01  -6.0 1.22e+02  -7.5 3.66e-01 9.06e-01h  1
 134 -1.9679465e-01 7.28e-01 9.93e+01  -6.0 2.75e+02  -8.0 9.81e-02 2.58e-01h  1
 135 -1.9710882e-01 6.70e-01 9.35e+01  -6.0 1.20e+02  -7.5 3.66e-01 9.07e-02h  1
 136 -2.0436272e-01 1.36e+00 2.94e+02  -6.0 2.78e+02  -8.0 4.38e-01 7.64e-01h  1
 137 -2.0699339e-01 5.06e+00 5.70e+02  -6.0 1.91e+03  -8.5 8.91e-02 1.72e-01h  1
 138 -2.0852150e-01 7.60e+00 4.91e+02  -6.0 1.96e+03  -8.1 1.52e-01 8.88e-02h  1
 139 -2.0948221e-01 7.35e+00 2.84e+02  -6.0 8.12e+02  -8.5 1.86e-01 6.48e-02h  1
iter    objective    inf_pr   inf_du lg(mu)  ||d||  lg(rg) alpha_du alpha_pr  ls
 140 -2.1013075e-01 7.18e+00 9.17e+02  -6.0 4.72e+03  -9.0 9.22e-02 2.28e-02h  1
 141 -2.1068607e-01 7.07e+00 1.01e+03  -6.0 1.01e+04  -9.5 4.29e-02 1.75e-02h  1
 142 -2.1262795e-01 6.53e+00 5.53e+03  -6.0 1.73e+03  -9.1 4.30e-01 1.06e-01h  1
 143 -2.1490472e-01 6.81e+00 3.90e+03  -6.0 5.56e+03  -9.6 1.13e-02 9.63e-02h  1
 144 -2.1677256e-01 6.49e+00 3.59e+03  -6.0 1.86e+03  -9.1 1.31e-01 1.16e-01h  1
 145 -2.2292982e-01 1.59e+01 2.37e+03  -6.0 4.03e+03  -9.6 4.51e-02 4.12e-01h  1
 146 -2.2321810e-01 1.48e+01 3.24e+03  -6.0 6.02e+02  -9.2 8.98e-03 7.26e-02h  1
 147 -2.2452811e-01 9.29e+00 5.53e+03  -6.0 4.40e+02  -8.8 3.06e-01 4.37e-01h  1
 148 -2.2618042e-01 8.55e+00 2.28e+03  -6.0 1.00e+03  -9.2 3.75e-01 3.23e-01h  1
 149 -2.2681751e-01 8.34e+00 4.27e+03  -6.0 1.06e+04  -9.7 4.66e-02 4.01e-02h  1
iter    objective    inf_pr   inf_du lg(mu)  ||d||  lg(rg) alpha_du alpha_pr  ls
 150 -2.2733832e-01 7.88e+00 1.06e+04  -6.0 2.87e+03  -9.3 7.28e-03 6.49e-02h  1
 151 -2.2862229e-01 6.23e+00 6.05e+04  -6.0 6.11e+02  -8.9 6.40e-02 2.93e-01h  1
 152 -2.2929642e-01 5.18e+00 2.48e+04  -6.0 2.52e+02  -8.4 2.07e-01 1.66e-01h  1
 153 -2.2942104e-01 5.16e+00 3.51e+06  -6.0 4.82e+03  -8.9 2.65e-04 4.84e-03h  1
 154 -2.3120068e-01 6.49e+00 7.63e+05  -6.0 2.30e+02  -8.5 1.31e-01 7.74e-01h  1
 155 -2.3167447e-01 7.02e+00 3.86e+05  -6.0 1.05e+02  -8.1 5.22e-03 4.96e-01h  1
 156 -2.3200529e-01 5.01e+00 2.80e+05  -6.0 4.28e+01  -6.7 1.42e-01 2.76e-01h  1
 157 -2.3282162e-01 3.26e+00 3.87e+04  -6.0 3.30e+01  -6.3 1.02e-01 8.69e-01h  1
 158 -2.3278079e-01 3.12e+00 3.71e+04  -6.0 2.32e+01  -5.9 1.23e-04 4.45e-02h  1
 159 -2.3271668e-01 2.20e+00 2.46e+04  -6.0 1.31e+00  -4.5 1.00e+00 2.95e-01h  1
iter    objective    inf_pr   inf_du lg(mu)  ||d||  lg(rg) alpha_du alpha_pr  ls
 160 -2.3250549e-01 2.78e-02 2.88e+01  -6.0 1.31e+00  -5.0 3.66e-01 1.00e+00h  1
 161 -2.3251065e-01 2.44e-02 1.33e+01  -6.0 2.37e+00  -5.5 1.00e+00 1.24e-01h  1
 162 -2.3264837e-01 4.63e-01 1.10e+01  -6.0 9.58e+00  -6.0 1.00e+00 1.00e+00f  1
 163 -2.3279781e-01 1.59e-01 1.68e+00  -6.0 4.28e+00  -5.6 1.00e+00 1.00e+00h  1
 164 -2.3298900e-01 5.06e-01 8.45e+00  -6.0 2.09e+01  -6.0 6.19e-01 3.51e-01h  1
 165 -2.3313464e-01 1.02e+00 8.85e+00  -6.0 1.24e+01  -6.5 1.00e+00 3.16e-01h  1
 166 -2.3386093e-01 2.65e+00 4.73e+01  -6.0 2.91e+01  -7.0 2.46e-01 7.83e-01h  1
 167 -2.3433185e-01 2.30e+00 6.04e+01  -6.0 6.81e+01  -7.5 2.64e-01 2.17e-01h  1
 168 -2.3507428e-01 1.32e+00 5.23e+01  -6.0 1.33e+02  -7.9 7.53e-02 4.39e-01h  1
 169 -2.3646625e-01 1.23e+00 9.24e+01  -6.0 3.33e+02  -8.4 4.60e-01 3.72e-01h  1
iter    objective    inf_pr   inf_du lg(mu)  ||d||  lg(rg) alpha_du alpha_pr  ls
 170 -2.3673221e-01 1.16e+00 8.63e+01  -6.0 6.76e+02  -8.9 1.88e-03 5.24e-02h  1
Error in an AMPL evaluation. Run with "halt_on_ampl_error yes" to see details.
Warning: Cutting back alpha due to evaluation error
 171 -2.3673716e-01 1.16e+00 6.57e+01  -6.0 3.75e+03  -9.4 4.18e-02 1.05e-03f  3
 172 -2.3839533e-01 3.51e+00 5.84e+01  -6.0 3.56e+03  -9.8 9.46e-02 1.11e-01h  1
 173 -2.4010332e-01 1.42e+01 5.49e+01  -6.0 1.00e+04 -10.3 1.07e-01 6.88e-02h  1
 174 -2.4076217e-01 1.25e+01 6.74e+01  -6.0 1.89e+03  -9.9 3.52e-01 1.22e-01h  1
 175 -2.4254093e-01 5.84e+00 2.58e+01  -6.0 1.26e+03  -9.5 1.28e-01 5.35e-01h  1
 176 -2.4269465e-01 5.12e+00 6.26e+01  -6.0 4.37e+01  -7.2 2.29e-01 1.23e-01h  1
 177 -2.4273710e-01 7.02e-03 2.22e+00  -6.0 4.04e+01  -7.7 1.00e+00 1.00e+00h  1
 178 -2.4309361e-01 1.01e-02 2.40e+01  -6.0 1.05e+02  -8.2 1.00e+00 6.65e-01h  1
 179 -2.4331214e-01 4.28e-02 4.04e+01  -6.0 2.42e+02  -8.7 1.00e+00 3.36e-01h  1
iter    objective    inf_pr   inf_du lg(mu)  ||d||  lg(rg) alpha_du alpha_pr  ls
 180 -2.4396143e-01 1.37e+00 1.00e+01  -6.0 5.24e+02  -9.1 1.00e+00 7.68e-01f  1
 181 -2.4413222e-01 2.69e-01 1.45e-01  -6.0 1.86e+02  -8.7 1.00e+00 1.00e+00h  1
 182 -2.4448047e-01 9.96e-01 2.13e-01  -6.0 4.06e+02  -9.2 1.00e+00 1.00e+00h  1
 183 -2.4526037e-01 2.29e+00 2.53e+00  -6.0 1.31e+03  -9.7 1.00e+00 1.00e+00h  1
 184 -2.4545306e-01 1.24e+00 4.35e+00  -6.0 5.47e+02  -9.2 5.96e-01 4.81e-01h  1
 185 -2.4569701e-01 1.50e+00 3.49e+00  -6.0 1.30e+04  -9.7 3.20e-02 3.30e-02h  1
 186 -2.4571642e-01 1.47e+00 3.42e+00  -6.0 1.82e+04 -10.2 2.07e-02 2.06e-02h  1
 187 -2.4580052e-01 1.43e+00 1.45e+03  -6.0 4.98e+03 -10.7 2.80e-01 3.51e-02h  1
 188 -2.4604099e-01 1.34e+00 1.68e+04  -6.0 2.35e+03 -10.3 2.32e-02 2.18e-01h  1
 189 -2.4605346e-01 1.10e+00 1.35e+04  -6.0 2.73e+02  -8.0 5.47e-02 1.88e-01h  1
iter    objective    inf_pr   inf_du lg(mu)  ||d||  lg(rg) alpha_du alpha_pr  ls
 190 -2.4609029e-01 8.15e-01 8.38e+03  -6.0 2.93e+02  -8.5 6.21e-02 3.86e-01h  1
Error in an AMPL evaluation. Run with "halt_on_ampl_error yes" to see details.
Warning: Cutting back alpha due to evaluation error
 191 -2.4609607e-01 7.89e-01 8.10e+03  -6.0 2.54e+02  -9.0 5.51e-04 3.33e-02h  2
 192 -2.4611136e-01 7.15e-01 7.33e+03  -6.0 8.63e+01  -7.6 1.91e-01 9.43e-02h  1
Error in an AMPL evaluation. Run with "halt_on_ampl_error yes" to see details.
Warning: Cutting back alpha due to evaluation error
 193 -2.4612517e-01 6.51e-01 6.67e+03  -6.0 4.26e+01  -8.1 1.19e-02 9.02e-02f  2
 194 -2.4612884e-01 4.65e-01 4.76e+03  -6.0 1.35e+01  -6.8 6.02e-01 2.86e-01h  1
 195 -2.4616186e-01 2.04e-03 1.04e+00  -6.0 9.58e+00  -7.3 8.37e-01 1.00e+00f  1
 196 -2.4622311e-01 3.68e-03 1.91e+00  -6.0 3.07e+01  -7.7 9.70e-01 8.24e-01h  1
 197 -2.4624620e-01 2.65e-02 2.00e+00  -6.0 8.22e+01  -8.2 8.62e-01 5.97e-01f  1
 198 -2.4637608e-01 8.33e-01 1.60e+01  -6.0 5.28e+02  -8.7 1.09e-01 4.52e-01f  1
 199 -2.4653930e-01 1.31e+00 1.50e+01  -6.0 4.14e+02  -9.2 1.00e+00 6.58e-01h  1
iter    objective    inf_pr   inf_du lg(mu)  ||d||  lg(rg) alpha_du alpha_pr  ls
 200 -2.4670035e-01 1.30e+00 1.14e+01  -6.0 8.87e+03  -8.8 1.68e-02 1.38e-02h  1
 201 -2.4742763e-01 4.10e+00 3.27e+01  -6.0 6.47e+02  -9.2 1.35e-02 7.38e-01h  1
 202 -2.4849195e-01 8.10e+01 1.14e+05  -6.0 2.71e+03  -8.8 5.88e-03 5.07e-01h  1
 203 -2.4865363e-01 6.90e+01 9.64e+04  -6.0 1.68e+02  -6.6 2.27e-01 1.51e-01h  1
 204 -2.4868315e-01 2.63e+01 3.51e+04  -6.0 2.57e+01  -7.1 1.74e-03 6.00e-01h  1
 205 -2.4873094e-01 1.22e+01 1.65e+04  -6.0 1.38e+01  -6.6 5.32e-01 5.29e-01h  1
 206 -2.4872599e-01 1.13e+01 1.52e+04  -6.0 3.45e+01  -7.1 1.99e-01 8.17e-02h  1
 207 -2.4874466e-01 9.77e+00 1.31e+04  -6.0 2.06e+01  -7.6 3.34e-01 1.41e-01h  1
 208 -2.4885741e-01 5.47e-01 6.34e+02  -6.0 4.41e+01  -8.1 1.00e+00 9.51e-01h  1
 209 -2.4928000e-01 6.02e-01 8.28e+00  -6.0 1.48e+02  -8.5 1.00e+00 9.88e-01h  1
iter    objective    inf_pr   inf_du lg(mu)  ||d||  lg(rg) alpha_du alpha_pr  ls
 210 -2.4944343e-01 1.32e-01 6.70e-01  -6.0 6.76e+01  -8.1 1.00e+00 1.00e+00h  1
 211 -2.4986331e-01 1.29e+00 7.37e+00  -6.0 3.62e+02  -8.6 5.45e-01 5.75e-01h  1
 212 -2.4999592e-01 7.26e-01 6.95e+02  -6.0 2.99e+02  -9.1 1.00e+00 4.50e-01h  1
 213 -2.5061265e-01 3.05e+00 2.22e+02  -6.0 7.17e+02  -9.5 5.69e-01 6.18e-01h  1
 214 -2.5157161e-01 1.40e+01 2.52e+01  -6.0 1.56e+03 -10.0 1.00e+00 1.00e+00h  1
 215 -2.5183970e-01 3.69e+00 1.04e+03  -6.0 5.65e+02  -9.6 4.22e-01 7.58e-01h  1
 216 -2.5212851e-01 1.74e+00 2.71e+03  -6.0 1.58e+03 -10.1 3.03e-01 5.75e-01h  1
 217 -2.5230602e-01 4.48e+00 2.42e+04  -6.0 9.60e+03 -10.5 1.70e-02 2.09e-01h  1
 218 -2.5229520e-01 3.68e+00 1.98e+04  -6.0 4.59e+02  -8.3 1.16e-01 1.78e-01f  1
 219 -2.5229609e-01 3.03e+00 1.63e+04  -6.0 9.98e+01  -8.8 2.14e-01 1.76e-01h  1
iter    objective    inf_pr   inf_du lg(mu)  ||d||  lg(rg) alpha_du alpha_pr  ls
 220 -2.5230573e-01 1.70e+00 9.03e+03  -6.0 2.82e+02  -9.3 1.63e-01 4.47e-01h  1
 221 -2.5246719e-01 9.40e-01 1.87e+01  -6.0 8.07e+02  -9.7 1.73e-01 1.00e+00h  1
 222 -2.5244318e-01 3.02e-01 5.65e+00  -6.0 2.77e+00  -5.7 7.40e-01 6.79e-01h  1
 223 -2.5242709e-01 4.48e-04 8.60e-02  -6.0 2.54e+00  -6.2 1.00e+00 1.00e+00f  1
 224 -2.5242579e-01 5.45e-05 4.08e-03  -6.0 1.42e+00  -6.7 1.00e+00 1.00e+00h  1
 225 -2.5242464e-01 2.22e-05 6.39e-02  -6.0 2.25e+00  -7.1 1.00e+00 9.32e-01H  1
 226 -2.5242235e-01 1.37e-04 1.02e-03  -6.0 6.06e+00  -7.6 1.00e+00 1.00e+00f  1
 227 -2.5242164e-01 4.88e-04 2.17e-03  -6.0 1.83e+01  -8.1 1.00e+00 1.00e+00h  1
 228 -2.5243173e-01 4.38e-03 3.73e-03  -6.0 5.50e+01  -8.6 1.00e+00 1.00e+00h  1
 229 -2.5247062e-01 3.98e-02 3.87e-02  -6.0 1.65e+02  -9.0 1.00e+00 1.00e+00h  1
iter    objective    inf_pr   inf_du lg(mu)  ||d||  lg(rg) alpha_du alpha_pr  ls
 230 -2.5259310e-01 4.07e-01 5.23e-01  -6.0 5.12e+02  -9.5 1.00e+00 1.00e+00h  1
 231 -2.5280502e-01 1.85e+00 9.71e+00  -6.0 2.48e+03 -10.0 2.86e-01 3.88e-01h  1
 232 -2.5322412e-01 9.13e-01 1.48e+00  -6.0 8.14e+02  -9.6 9.88e-01 1.00e+00h  1
 233 -2.5323960e-01 7.88e-01 1.28e+00  -6.0 4.96e+02  -9.1 1.08e-01 1.46e-01h  1
Error in an AMPL evaluation. Run with "halt_on_ampl_error yes" to see details.
Warning: Cutting back alpha due to evaluation error
 234 -2.5327325e-01 6.89e-01 1.10e+01  -6.0 3.34e+02  -9.6 1.00e+00 1.31e-01h  2
 235 -2.5352496e-01 1.02e+00 7.87e+00  -6.0 1.04e+03 -10.1 5.99e-01 5.14e-01h  1
 236 -2.5360552e-01 2.55e+00 3.28e+00  -6.0 2.06e+03 -10.6 1.70e-01 2.59e-01h  1
 237 -2.5385724e-01 6.21e+00 2.21e+01  -6.0 1.35e+03 -10.2 1.94e-01 1.00e+00h  1
 238 -2.5396802e-01 5.88e+00 2.54e+01  -6.0 4.08e+03 -10.6 9.76e-02 1.30e-01h  1
 239 -2.5411393e-01 6.66e+00 2.67e+01  -6.0 4.56e+04 -11.1 7.38e-03 9.47e-03h  2
iter    objective    inf_pr   inf_du lg(mu)  ||d||  lg(rg) alpha_du alpha_pr  ls
 240 -2.5438488e-01 8.94e+00 2.09e+01  -6.0 3.33e+03  -9.8 1.95e-01 1.41e-01h  1
 241 -2.5481682e-01 1.66e+01 2.39e+01  -6.0 2.79e+03 -10.3 7.47e-02 2.99e-01h  1
 242 -2.5482707e-01 1.65e+01 3.54e+01  -6.0 9.89e+01  -7.1 6.34e-02 3.22e-03h  1
 243 -2.5520723e-01 1.10e+01 3.92e+01  -6.0 4.89e+01  -7.6 1.19e-01 3.35e-01h  1
 244 -2.5521563e-01 1.06e+01 4.23e+01  -6.0 5.78e+01  -8.1 2.05e-01 3.23e-02h  1
 245 -2.5536004e-01 8.82e+00 5.97e+01  -6.0 1.25e+02  -8.6 6.18e-02 2.22e-01h  1
 246 -2.5548941e-01 7.41e+00 9.15e+01  -6.0 1.46e+02  -9.0 6.86e-01 2.82e-01h  1
 247 -2.5542756e-01 6.92e+00 8.37e+01  -6.0 1.47e+02  -7.7 1.06e-01 8.79e-02h  1
 248 -2.5559611e-01 6.17e+00 6.75e+01  -6.0 2.67e+02  -7.3 3.00e-02 1.04e-01h  1
 249 -2.5541921e-01 6.12e+00 1.52e+02  -6.0 2.55e+03  -7.8 8.91e-03 8.00e-03h  2
iter    objective    inf_pr   inf_du lg(mu)  ||d||  lg(rg) alpha_du alpha_pr  ls
 250 -2.5554240e-01 6.41e+00 1.74e+02  -6.0 9.77e+02  -7.3 3.30e-02 9.99e-03h  2
 251 -2.5558165e-01 4.68e+00 1.11e+02  -6.0 1.28e+01  -6.9 5.70e-02 2.39e-01h  1
 252 -2.5582977e-01 9.66e-01 9.09e+01  -6.0 1.30e+01  -7.4 1.00e+00 8.50e-01h  1
 253 -2.5587091e-01 7.72e-01 1.39e+03  -6.0 5.17e+01  -7.9 1.00e+00 2.00e-01h  1
 254 -2.5614889e-01 2.08e-01 1.52e+02  -6.0 1.33e+02  -8.3 8.32e-01 1.00e+00h  1
 255 -2.5637919e-01 2.82e-01 2.91e+03  -6.0 2.46e+02  -8.8 9.43e-01 4.96e-01h  1
 256 -2.5662497e-01 2.61e+00 8.41e+02  -6.0 8.75e+02  -9.3 2.92e-01 4.36e-01h  1
 257 -2.5682613e-01 3.65e+00 1.04e+06  -6.0 8.88e+02  -9.8 4.04e-03 3.79e-01h  1
 258 -2.5679678e-01 2.84e+00 5.22e+05  -6.0 7.57e+02 -10.2 5.67e-02 5.00e-01h  1
 259 -2.5681671e-01 2.50e+00 4.55e+05  -6.0 7.24e+02  -9.8 7.06e-01 1.28e-01h  1
iter    objective    inf_pr   inf_du lg(mu)  ||d||  lg(rg) alpha_du alpha_pr  ls
 260 -2.5684207e-01 1.88e+00 3.38e+05  -6.0 8.29e+02 -10.3 2.56e-01 2.56e-01h  1
 261 -2.5684615e-01 1.50e+01 3.21e+05  -6.0 1.68e+04    -  3.06e-02 5.12e-02h  2
 262 -2.5685012e-01 1.12e+01 2.37e+05  -6.0 1.04e+03    -  2.01e-01 2.61e-01h  1
 263 -2.5685825e-01 1.03e+01 2.16e+05  -6.0 3.02e+03 -10.8 5.29e-02 8.75e-02h  1
 264 -2.5686024e-01 9.91e+00 2.09e+05  -6.0 2.30e+03  -9.4 5.27e-02 3.47e-02h  1
 265 -2.5692580e-01 3.12e+00 1.30e+02  -6.0 4.37e+02  -9.9 6.91e-01 1.00e+00h  1
 266 -2.5693811e-01 2.84e+00 9.76e+01  -6.0 1.06e+03  -9.5 7.87e-02 2.52e-01h  1
 267 -2.5697849e-01 2.07e+00 4.61e+01  -6.0 4.21e+02 -10.0 4.76e-02 1.00e+00h  1
 268 -2.5700287e-01 1.85e+00 1.35e+02  -6.0 1.14e+03  -9.5 1.00e+00 1.06e-01h  1
 269 -2.5702514e-01 5.60e+00 4.27e+01  -6.0 5.68e+02 -10.0 7.35e-01 1.00e+00h  1
iter    objective    inf_pr   inf_du lg(mu)  ||d||  lg(rg) alpha_du alpha_pr  ls
 270 -2.5702842e-01 5.47e+00 5.28e+01  -6.0 4.68e+03    -  3.02e-01 8.80e-02h  1
 271 -2.5701655e-01 4.14e-01 1.30e+01  -6.0 1.88e+02  -9.6 2.68e-01 1.00e+00h  1
 272 -2.5701794e-01 1.09e+00 1.92e-01  -6.0 2.56e+02 -10.1 1.00e+00 1.00e+00h  1
 273 -2.5701418e-01 2.07e+00 9.59e-01  -6.0 1.43e+03 -10.5 1.94e-01 2.10e-01h  3
 274 -2.5700260e-01 1.83e+00 1.05e+00  -6.0 3.21e+02 -10.1 1.00e+00 1.00e+00h  1
 275 -2.5699124e-01 1.57e+00 9.28e+00  -6.0 3.79e+02    -  8.25e-01 5.15e-01h  1
 276 -2.5697895e-01 8.45e-02 1.10e-02  -6.0 9.01e+01    -  1.00e+00 1.00e+00h  1
 277 -2.5697957e-01 4.54e-03 8.91e-04  -6.0 1.59e+01    -  1.00e+00 1.00e+00h  1
 278 -2.5697957e-01 4.38e-06 6.08e-07  -6.0 4.96e-01    -  1.00e+00 1.00e+00h  1
 279 -2.5740680e-01 5.39e-01 4.66e+01  -7.5 4.02e+03    -  3.38e-01 1.74e-01h  1
iter    objective    inf_pr   inf_du lg(mu)  ||d||  lg(rg) alpha_du alpha_pr  ls
 280 -2.5749799e-01 5.63e-01 1.24e+02  -7.5 3.02e+03    -  4.83e-01 6.09e-02h  1
 281 -2.5756111e-01 3.83e-01 6.66e+01  -7.5 3.91e+00  -6.1 1.36e-01 3.19e-01h  1
 282 -2.5772183e-01 1.99e-01 4.28e+01  -7.5 7.95e+00  -6.6 5.74e-01 4.81e-01h  1
 283 -2.5778332e-01 3.38e-02 1.03e+02  -7.5 3.61e+00  -6.1 1.84e-01 8.30e-01h  1
 284 -2.5788834e-01 2.99e-02 1.07e+02  -7.5 2.45e+01  -6.6 3.48e-01 1.14e-01h  1
 285 -2.5792759e-01 2.21e-02 3.97e+01  -7.5 9.93e+00  -7.1 5.51e-01 2.60e-01h  1
 286 -2.5795830e-01 1.92e-02 6.24e+00  -7.5 4.40e+01  -7.6 7.25e-01 1.31e-01h  1
 287 -2.5800268e-01 1.62e-02 6.54e+00  -7.5 8.78e+01  -8.0 8.52e-02 1.59e-01h  1
 288 -2.5809900e-01 3.85e-02 4.28e+00  -7.5 2.30e+02  -8.5 3.30e-01 1.67e-01h  1
 289 -2.5822577e-01 3.70e-01 4.19e+00  -7.5 1.04e+04    -  2.12e-02 2.14e-02h  1
iter    objective    inf_pr   inf_du lg(mu)  ||d||  lg(rg) alpha_du alpha_pr  ls
 290 -2.5843191e-01 6.52e+00 6.01e+00  -7.5 1.03e+04    -  1.45e-01 6.21e-02h  1
 291 -2.5845350e-01 5.56e+00 3.38e+01  -7.5 6.56e+01  -9.0 1.01e-01 1.47e-01h  1
 292 -2.5847972e-01 5.18e+00 3.95e+01  -7.5 2.00e+03    -  8.38e-02 9.69e-02h  1
 293 -2.5850063e-01 3.99e+00 2.50e+03  -7.5 9.86e+01  -9.5 1.14e-02 2.29e-01h  1
 294 -2.5852341e-01 3.12e+00 1.96e+03  -7.5 2.15e+02  -9.9 5.79e-02 2.17e-01h  1
 295 -2.5860300e-01 2.63e+00 1.64e+03  -7.5 1.21e+03 -10.4 1.70e-02 1.60e-01h  1
 296 -2.5861009e-01 2.16e+00 1.35e+03  -7.5 9.13e+02 -10.9 7.69e-01 1.78e-01h  1
 297 -2.5862481e-01 3.65e+00 1.19e+03  -7.5 2.60e+03    -  5.09e-01 1.23e-01h  1
 298 -2.5866608e-01 3.79e+01 7.89e+02  -7.5 3.92e+03    -  1.00e+00 3.35e-01h  1
 299 -2.5870743e-01 2.38e+01 2.09e+00  -7.5 9.98e+02    -  9.18e-01 1.00e+00h  1
iter    objective    inf_pr   inf_du lg(mu)  ||d||  lg(rg) alpha_du alpha_pr  ls
 300 -2.5870925e-01 2.31e+01 1.87e+00  -7.5 2.93e+03    -  2.74e-01 4.78e-02h  1
 301 -2.5869508e-01 1.36e-01 1.24e+00  -7.5 9.30e+01    -  7.02e-01 1.00e+00h  1
 302 -2.5869650e-01 1.03e-01 2.12e-02  -7.5 6.59e+01    -  1.00e+00 9.85e-01h  1
 303 -2.5869658e-01 1.72e-04 6.77e-05  -7.5 2.78e+00    -  1.00e+00 1.00e+00h  1
 304 -2.5869660e-01 8.69e-08 1.45e-06  -7.5 5.99e-02    -  1.00e+00 1.00e+00h  1
 305 -2.5869660e-01 4.58e-10 7.81e-10  -7.5 1.35e-03    -  1.00e+00 1.00e+00h  1
 306 -2.5869803e-01 2.52e+00 6.80e+00  -9.0 2.21e+03    -  4.67e-01 1.79e-01h  1
 307 -2.5870062e-01 5.95e+01 2.80e+00  -9.0 4.43e+03    -  3.39e-01 4.27e-01h  1
 308 -2.5870259e-01 4.08e+01 4.50e+00  -9.0 1.54e+03    -  2.74e-01 7.91e-01h  1
 309 -2.5870258e-01 8.25e-01 2.24e+01  -9.0 2.67e+02    -  6.39e-02 1.00e+00h  1
iter    objective    inf_pr   inf_du lg(mu)  ||d||  lg(rg) alpha_du alpha_pr  ls
 310 -2.5870282e-01 2.16e+00 5.78e-01  -9.0 3.35e+02 -11.4 9.00e-01 1.00e+00h  1
 311 -2.5870308e-01 2.61e+00 4.39e-03  -9.0 3.64e+02 -11.9 1.00e+00 1.00e+00h  1
 312 -2.5870360e-01 1.17e+01 8.35e-03  -9.0 7.67e+02 -12.3 1.00e+00 1.00e+00h  1
 313 -2.5870452e-01 8.80e+01 3.36e-02  -9.0 2.74e+03 -12.8 2.90e-02 1.00e+00h  1
 314 -2.5870471e-01 5.07e+00 6.06e-02  -9.0 5.37e+02 -12.4 1.53e-01 1.00e+00h  1
 315 -2.5870547e-01 8.44e+01 6.60e-02  -9.0 2.71e+03 -12.9 2.86e-01 9.33e-01h  1
 316 -2.5870546e-01 8.34e+01 2.24e+00  -9.0 3.84e+03 -12.4 3.04e-01 1.26e-02h  1
 317 -2.5870535e-01 2.87e+01 6.09e+01  -9.0 7.23e+02 -12.0 2.01e-02 6.91e-01h  1
 318 -2.5870535e-01 2.86e+01 6.07e+01  -9.0 2.77e+03    -  1.24e-04 3.60e-03h  1
 319 -2.5870540e-01 3.49e+00 9.24e-01  -9.0 1.25e+03    -  7.02e-04 1.00e+00H  1
iter    objective    inf_pr   inf_du lg(mu)  ||d||  lg(rg) alpha_du alpha_pr  ls
 320 -2.5870557e-01 6.01e+00 1.32e-03  -9.0 6.88e+02 -12.5 9.98e-01 1.00e+00h  1
 321 -2.5870686e-01 8.92e+01 1.70e-02  -9.0 5.06e+03 -13.0 3.07e-01 5.13e-01h  1
 322 -2.5870688e-01 6.51e+01 8.43e-02  -9.0 2.04e+03    -  2.43e-02 3.42e-01h  1
 323 -2.5870760e-01 4.17e+01 7.52e-02  -9.0 1.61e+03 -12.5 1.20e-03 1.00e+00h  1
 324 -2.5870818e-01 4.92e+01 4.96e-02  -9.0 3.63e+03 -13.0 2.80e-01 2.99e-01h  1
 325 -2.5870815e-01 2.75e+01 2.29e+00  -9.0 2.41e+03    -  7.18e-02 1.00e+00H  1
 326 -2.5870839e-01 1.92e+00 1.01e-01  -9.0 2.63e+02 -11.7 2.17e-01 1.00e+00h  1
 327 -2.5870896e-01 1.26e+01 5.89e-02  -9.0 9.31e+02 -12.2 4.76e-01 1.00e+00h  1
 328 -2.5871040e-01 6.60e+01 2.52e-02  -9.0 3.19e+03 -12.6 4.72e-01 6.32e-01h  1
 329 -2.5871057e-01 6.38e+01 1.57e-01  -9.0 1.08e+04    -  9.67e-02 3.43e-02h  3
iter    objective    inf_pr   inf_du lg(mu)  ||d||  lg(rg) alpha_du alpha_pr  ls
 330 -2.5871069e-01 6.22e+01 4.69e-01  -9.0 9.78e+03    -  1.55e-01 2.46e-02h  3
 331 -2.5871234e-01 4.85e+01 2.75e+00  -9.0 1.66e+03 -12.2 3.83e-02 1.00e+00h  1
 332 -2.5871241e-01 4.82e+01 2.74e+00  -9.0 2.58e+04    -  6.57e-03 5.94e-03h  3
 333 -2.5871254e-01 4.75e+01 2.88e+00  -9.0 1.66e+04    -  8.41e-02 1.56e-02h  2
 334 -2.5871377e-01 4.41e+01 1.37e+00  -9.0 1.52e+03 -12.7 3.09e-01 1.00e+00h  1
 335 -2.5871401e-01 1.69e+01 1.35e+00  -9.0 1.20e+03 -13.2 4.10e-02 8.26e-01h  1
 336 -2.5871379e-01 1.90e+01 9.30e-01  -9.0 4.89e+03    -  1.80e-01 8.55e-02h  1
 337 -2.5871378e-01 1.37e+01 6.31e-01  -9.0 5.81e+02    -  2.03e-01 3.19e-01h  1
 338 -2.5871371e-01 1.09e+01 5.14e-01  -9.0 5.96e+02    -  8.27e-01 2.04e-01h  1
 339 -2.5871367e-01 8.92e+00 4.20e-01  -9.0 5.49e+02    -  1.00e+00 1.82e-01h  1
iter    objective    inf_pr   inf_du lg(mu)  ||d||  lg(rg) alpha_du alpha_pr  ls
 340 -2.5871349e-01 3.34e+00 1.54e-02  -9.0 3.97e+02    -  3.73e-03 1.00e+00h  1
 341 -2.5871350e-01 2.67e-03 1.77e-01  -9.0 1.15e+01 -10.0 2.92e-01 1.00e+00h  1
 342 -2.5871350e-01 3.12e-03 1.93e-01  -9.0 1.52e+03    -  1.00e+00 3.16e-03h  2
 343 -2.5871350e-01 2.66e-03 1.96e-01  -9.0 2.95e+01    -  1.00e+00 2.10e-01h  2
 344 -2.5871350e-01 3.11e-02 2.44e-03  -9.0 4.43e+01    -  1.00e+00 1.00e+00h  1
 345 -2.5871351e-01 2.39e-05 6.55e-07  -9.0 1.45e+00 -10.5 1.00e+00 1.00e+00h  1
 346 -2.5871351e-01 2.21e-04 3.16e-07  -9.0 4.32e+00 -11.0 1.00e+00 1.00e+00h  1
 347 -2.5871351e-01 2.07e-03 2.43e-07  -9.0 1.32e+01 -11.5 1.00e+00 1.00e+00h  1
 348 -2.5871351e-01 2.12e-02 2.01e-06  -9.0 4.23e+01 -11.9 1.00e+00 1.00e+00h  1
 349 -2.5871352e-01 2.77e-01 2.62e-05  -9.0 1.53e+02 -12.4 1.00e+00 1.00e+00h  1
iter    objective    inf_pr   inf_du lg(mu)  ||d||  lg(rg) alpha_du alpha_pr  ls
 350 -2.5871356e-01 3.56e+00 3.52e-03  -9.0 8.01e+02 -12.9 1.00e+00 6.78e-01h  1
 351 -2.5871354e-01 6.04e-01 2.90e-03  -9.0 2.26e+02    -  7.54e-01 1.00e+00h  1
 352 -2.5871357e-01 3.98e-01 1.33e-03  -9.0 3.42e+02    -  1.00e+00 6.71e-01H  1
 353 -2.5871357e-01 9.12e-04 2.89e-07  -9.0 8.50e+00    -  1.00e+00 1.00e+00h  1
 354 -2.5871357e-01 4.34e-06 4.52e-10  -9.0 6.13e-01    -  1.00e+00 1.00e+00h  1
 355 -2.5871357e-01 2.83e-10 2.79e-14  -9.0 2.25e-04    -  1.00e+00 1.00e+00h  1

Number of Iterations....: 355

                                   (scaled)                 (unscaled)
Objective...............:  -2.5871356654717709e-01   -2.5871356654717709e-01
Dual infeasibility......:   2.7919251252950545e-14    2.7919251252950545e-14
Constraint violation....:   2.8254938037701460e-10    2.8254938037701460e-10
Complementarity.........:   9.0909091156555670e-10    9.0909091156555670e-10
Overall NLP error.......:   9.0909091156555670e-10    9.0909091156555670e-10


Number of objective function evaluations             = 603
Number of objective gradient evaluations             = 356
Number of equality constraint evaluations            = 607
Number of inequality constraint evaluations          = 604
Number of equality constraint Jacobian evaluations   = 361
Number of inequality constraint Jacobian evaluations = 361
Number of Lagrangian Hessian evaluations             = 355
Total CPU secs in IPOPT (w/o function evaluations)   =    767.421
Total CPU secs in NLP function evaluations           =     13.214

EXIT: Optimal Solution Found.
